NAME: tsp25_30
COMMENT: 25-tsp problem (Padberg/Rinaldi)
TYPE: TSP
DIMENSION: 25
EDGE_WEIGHT_TYPE : EUC_2D
NODE_COORD_SECTION
1.00 15.59 12.82
2.00 21.35 13.61
3.00 19.69 14.50
4.00 33.12 23.41
5.00 18.70 12.91
6.00 10.35 1.47
7.00 24.61 12.80
8.00 5.10 11.56
9.00 10.85 10.51
10.00 16.09 9.42
11.00 21.53 35.00
12.00 17.74 10.15
13.00 23.26 33.05
14.00 10.99 4.39
15.00 31.65 39.74
16.00 31.26 22.98
17.00 14.42 21.37
18.00 31.11 11.08
19.00 39.14 28.53
20.00 35.21 19.88
21.00 27.10 34.22
22.00 0.24 10.40
23.00 17.87 29.80
24.00 1.95 14.64
25.00 34.47 12.31
